ilp_joint/output/crossbreeding_ilp.lp
Maximize
  3.2985164383503909e-04 Z_690_0_0 + 0.00206943862875499 Z_690_0_1
   + 0.7902753109617645 Z_690_0_2 + 0.0011945269985885 Z_690_0_3
   + 0.106130871767057 Z_690_0_4 + 0.0165011869453141 Z_350_2_0
   + 0.0193825837765642 Z_350_2_1 + 0.017941732438446 Z_350_2_2
   + 0.00360149675281802 Z_350_2_3 + 0.842573 Z_350_2_4
   + 3.8663226757624548e-04 Z_350_0_0 + 0.00278524224446441 Z_350_0_1
   + 0.5943085036041378 Z_350_0_2 + 0.00252461260365737 Z_350_0_3
   + 0.2999950092801643 Z_350_0_4 + 3.8663226757624548e-04 Z_350_1_0
   + 0.00278524224446441 Z_350_1_1 + 0.5943085036041378 Z_350_1_2
   + 0.00252461260365737 Z_350_1_3 + 0.2999950092801643 Z_350_1_4
   + 5.3812237803255939e-04 Z_215_1_0 + 0.0179436611833375 Z_215_1_1
   + 0.4560990383960631 Z_215_1_2 + 0.00603871156329215 Z_215_1_3
   + 0.4193804664792747 Z_215_1_4 + 0.00241580800168139 Z_215_0_0
   + 0.00522849021141761 Z_215_0_1 + 0.5045479012748846 Z_215_0_2
   + 0.00322676681536921 Z_215_0_3 + 0.3845810336966473 Z_215_0_4
Subject To
 constraint1_6900: Z_690_0_0 + Z_690_0_1 + Z_690_0_2 + Z_690_0_3
   + Z_690_0_4 <= 1
 constraint1_3502: Z_350_2_0 + Z_350_2_1 + Z_350_2_2 + Z_350_2_3
   + Z_350_2_4 <= 1
 constraint1_3500: Z_350_0_0 + Z_350_0_1 + Z_350_0_2 + Z_350_0_3
   + Z_350_0_4 <= 1
 constraint1_3501: Z_350_1_0 + Z_350_1_1 + Z_350_1_2 + Z_350_1_3
   + Z_350_1_4 <= 1
 constraint1_2151: Z_215_1_0 + Z_215_1_1 + Z_215_1_2 + Z_215_1_3
   + Z_215_1_4 <= 1
 constraint1_2150: Z_215_0_0 + Z_215_0_1 + Z_215_0_2 + Z_215_0_3
   + Z_215_0_4 <= 1
 constraint2_6900: Z_690_0_0 <= 1
 constraint2_6901: Z_690_0_1 <= 1
 constraint2_6902: Z_690_0_2 <= 1
 constraint2_6903: Z_690_0_3 <= 1
 constraint2_3500: Z_350_2_0 + Z_350_0_0 + Z_350_1_0 <= 1
 constraint2_3501: Z_350_2_1 + Z_350_0_1 + Z_350_1_1 <= 1
 constraint2_3502: Z_350_2_2 + Z_350_0_2 + Z_350_1_2 <= 1
 constraint2_3503: Z_350_2_3 + Z_350_0_3 + Z_350_1_3 <= 1
 constraint2_2150: Z_215_1_0 + Z_215_0_0 <= 1
 constraint2_2151: Z_215_1_1 + Z_215_0_1 <= 1
 constraint2_2152: Z_215_1_2 + Z_215_0_2 <= 1
 constraint2_2153: Z_215_1_3 + Z_215_0_3 <= 1
 constraint2_5370: <= 1
 constraint2_5371: <= 1
 constraint2_5372: <= 1
 constraint2_5373: <= 1
 constraint2_4500: <= 1
 constraint2_4501: <= 1
 constraint2_4502: <= 1
 constraint2_4503: <= 1
 constraint2_180: <= 1
 constraint2_181: <= 1
 constraint2_182: <= 1
 constraint2_183: <= 1
 constraint2_6060: <= 1
 constraint2_6061: <= 1
 constraint2_6062: <= 1
 constraint2_6063: <= 1
Bounds
Binaries
 Z_690_0_0 Z_690_0_1 Z_690_0_2 Z_690_0_3 Z_690_0_4 Z_350_2_0 Z_350_2_1
 Z_350_2_2 Z_350_2_3 Z_350_2_4 Z_350_0_0 Z_350_0_1 Z_350_0_2 Z_350_0_3
 Z_350_0_4 Z_350_1_0 Z_350_1_1 Z_350_1_2 Z_350_1_3 Z_350_1_4 Z_215_1_0
 Z_215_1_1 Z_215_1_2 Z_215_1_3 Z_215_1_4 Z_215_0_0 Z_215_0_1 Z_215_0_2
 Z_215_0_3 Z_215_0_4
End
