ilp_joint/output/crossbreeding_ilp.mps
NAME crossbreeding_srl_ilp
* Max problem is converted into Min one
ROWS
 N  OBJ
 L  constraint1_340
 L  constraint1_4160
 L  constraint1_4161
 L  constraint1_2980
 L  constraint2_340
 L  constraint2_341
 L  constraint2_342
 L  constraint2_343
 L  constraint2_4160
 L  constraint2_4161
 L  constraint2_4162
 L  constraint2_4163
 L  constraint2_2980
 L  constraint2_2981
 L  constraint2_2982
 L  constraint2_2983
COLUMNS
    MARKER    'MARKER'                 'INTORG'
    Z_34_0_0  OBJ       -2.1117997087616726e-02
    Z_34_0_0  constraint1_340  1
    Z_34_0_0  constraint2_340  1
    Z_34_0_1  OBJ       -4.6610138679282057e-02
    Z_34_0_1  constraint1_340  1
    Z_34_0_1  constraint2_341  1
    Z_34_0_2  OBJ       -2.3895096042941527e-01
    Z_34_0_2  constraint1_340  1
    Z_34_0_2  constraint2_342  1
    Z_34_0_3  OBJ       -4.0842192972887562e-02
    Z_34_0_3  constraint1_340  1
    Z_34_0_3  constraint2_343  1
    Z_416_0_0  OBJ       -1.3937172165305689e-02
    Z_416_0_0  constraint1_4160  1
    Z_416_0_0  constraint2_4160  1
    Z_416_0_1  OBJ       -2.6412611947138533e-02
    Z_416_0_1  constraint1_4160  1
    Z_416_0_1  constraint2_4161  1
    Z_416_0_2  OBJ       -1.9445494674748345e-01
    Z_416_0_2  constraint1_4160  1
    Z_416_0_2  constraint2_4162  1
    Z_416_0_3  OBJ       -1.8018307950038857e-02
    Z_416_0_3  constraint1_4160  1
    Z_416_0_3  constraint2_4163  1
    Z_416_1_0  OBJ       -2.6083046957209532e-03
    Z_416_1_0  constraint1_4161  1
    Z_416_1_0  constraint2_4160  1
    Z_416_1_1  OBJ       -2.8518688153871964e-02
    Z_416_1_1  constraint1_4161  1
    Z_416_1_1  constraint2_4161  1
    Z_416_1_2  OBJ       -1.8368464725498114e-02
    Z_416_1_2  constraint1_4161  1
    Z_416_1_2  constraint2_4162  1
    Z_416_1_3  OBJ       -2.7428411966013418e-02
    Z_416_1_3  constraint1_4161  1
    Z_416_1_3  constraint2_4163  1
    Z_298_0_0  OBJ       -7.6346369396122049e-02
    Z_298_0_0  constraint1_2980  1
    Z_298_0_0  constraint2_2980  1
    Z_298_0_1  OBJ       -4.2465722315714764e-02
    Z_298_0_1  constraint1_2980  1
    Z_298_0_1  constraint2_2981  1
    Z_298_0_2  OBJ       -2.5152061450996299e-02
    Z_298_0_2  constraint1_2980  1
    Z_298_0_2  constraint2_2982  1
    Z_298_0_3  OBJ       -6.1076987161382032e-02
    Z_298_0_3  constraint1_2980  1
    Z_298_0_3  constraint2_2983  1
    MARKER    'MARKER'                 'INTEND'
RHS
    RHS1      constraint1_340  1
    RHS1      constraint1_4160  1
    RHS1      constraint1_4161  1
    RHS1      constraint1_2980  1
    RHS1      constraint2_340  1
    RHS1      constraint2_341  1
    RHS1      constraint2_342  1
    RHS1      constraint2_343  1
    RHS1      constraint2_4160  1
    RHS1      constraint2_4161  1
    RHS1      constraint2_4162  1
    RHS1      constraint2_4163  1
    RHS1      constraint2_2980  1
    RHS1      constraint2_2981  1
    RHS1      constraint2_2982  1
    RHS1      constraint2_2983  1
BOUNDS
 UP BND1      Z_34_0_0  1
 UP BND1      Z_34_0_1  1
 UP BND1      Z_34_0_2  1
 UP BND1      Z_34_0_3  1
 UP BND1      Z_416_0_0  1
 UP BND1      Z_416_0_1  1
 UP BND1      Z_416_0_2  1
 UP BND1      Z_416_0_3  1
 UP BND1      Z_416_1_0  1
 UP BND1      Z_416_1_1  1
 UP BND1      Z_416_1_2  1
 UP BND1      Z_416_1_3  1
 UP BND1      Z_298_0_0  1
 UP BND1      Z_298_0_1  1
 UP BND1      Z_298_0_2  1
 UP BND1      Z_298_0_3  1
ENDATA
