ilp_joint/output/crossbreeding_ilp.sol
# Solution for model crossbreeding_srl_ilp
# Objective value = 6.8251643608661194e-01
Z_549_0_0 0
Z_549_0_1 0
Z_549_0_2 1
Z_549_0_3 0
Z_549_0_4 0
